NAME : Mitra-1-01
TYPE : VRPSPD
DIMENSION : 20
VEHICLES : 2
CAPACITY : 10
EDGE_WEIGHT_TYPE : EXPLICIT
EDGE_WEIGHT_FORMAT : FULL_MATRIX
EDGE_WEIGHT_SECTION
0 10 10 10 10 10 10 10 10 10 10 10 10 10 10 10 10 10 10 10 
10 0 10 10 10 10 10 10 10 10 10 10 10 10 10 10 10 10 10 10 
10 10 0 10 10 10 10 10 10 10 10 10 10 10 10 10 10 10 10 10 
10 10 10 0 10 10 10 10 10 10 10 10 10 10 10 10 10 10 10 10 
10 10 10 10 0 10 10 10 10 10 10 10 10 10 10 10 10 10 10 10 
10 10 10 10 10 0 10 10 10 10 10 10 10 10 10 10 10 10 10 10 
10 10 10 10 10 10 0 10 10 10 10 10 10 10 10 10 10 10 10 10 
10 10 10 10 10 10 10 0 10 10 10 10 10 10 10 10 10 10 10 10 
10 10 10 10 10 10 10 10 0 10 10 10 10 10 10 10 10 10 10 10 
10 10 10 10 10 10 10 10 10 0 10 10 10 10 10 10 10 10 10 10 
10 10 10 10 10 10 10 10 10 10 0 10 10 10 10 10 10 10 10 10 
10 10 10 10 10 10 10 10 10 10 10 0 10 10 10 10 10 10 10 10 
10 10 10 10 10 10 10 10 10 10 10 10 0 10 10 10 10 10 10 10 
10 10 10 10 10 10 10 10 10 10 10 10 10 0 10 10 10 10 10 10 
10 10 10 10 10 10 10 10 10 10 10 10 10 10 0 10 10 10 10 10 
10 10 10 10 10 10 10 10 10 10 10 10 10 10 10 0 10 10 10 10 
10 10 10 10 10 10 10 10 10 10 10 10 10 10 10 10 0 10 10 10 
10 10 10 10 10 10 10 10 10 10 10 10 10 10 10 10 10 0 10 10 
10 10 10 10 10 10 10 10 10 10 10 10 10 10 10 10 10 10 0 10 
10 10 10 10 10 10 10 10 10 10 10 10 10 10 10 10 10 10 10 0 
PICKUP_AND_DELIVERY_SECTION
1 0 0 10000000 0 0 0
2 0 0 10000000 0 1 1
3 0 0 10000000 0 1 1
4 0 0 10000000 0 1 1
5 0 0 10000000 0 1 1
6 0 0 10000000 0 1 1
7 0 0 10000000 0 1 1
8 0 0 10000000 0 1 1
9 0 0 10000000 0 1 1
10 0 0 10000000 0 1 1
11 0 0 10000000 0 1 1
12 0 0 10000000 0 1 1
13 0 0 10000000 0 1 1
14 0 0 10000000 0 1 1
15 0 0 10000000 0 1 1
16 0 0 10000000 0 1 1
17 0 0 10000000 0 1 1
18 0 0 10000000 0 1 1
19 0 0 10000000 0 1 1
20 0 0 10000000 0 1 1
DEPOT_SECTION
1 
-1
EOF
